147674
0,23,101,73,25,33,82,56,79,88,22,91,8,49,67,98,18,80,41,105,97,87,39,55,19,15,63,89,16,20,45,85,24,44,99,50,62,74,34,102,60,46,13,3,14,42,78,90,59,95,17,48,36,38,83,6,31,52,32,81,71,1,72,84,35,70,53,94,37,2,77,93,69,100,104,103,66,40,10,47,21,61,76,5,68,12,30,64,51,4,29,28,54,96,7,11,92,75,57,27,26,9,58,65,43,86,0